33
Coordinates from ORCA-job geom_m5 E -1254.535868177212
  C      -4.560863      1.944894      0.051474
  C      -3.066602      2.091085      0.106221
  N      -2.329407      0.961290      0.175697
  C      -0.993078      1.084875      0.190954
  C      -0.199226     -0.046308      0.235560
  C       1.190322      0.047283      0.203776
  C       1.835076      1.287060      0.133383
  C       3.293738      1.326462      0.111794
  C       4.200870      2.010404      0.894835
  C       5.492572      1.406736      0.874148
  C       5.531863      0.321370      0.031387
  C       6.312160     -0.872943      0.169454
  C       6.384485     -2.166992      0.328036
  C       4.975450     -2.736222      0.296439
  N       3.806539     -3.208445      0.270227
  C       7.585204     -2.890874      0.296832
  N       8.579550     -3.486559      0.285582
  S       4.152153      0.334086     -1.004046
  C       1.051481      2.436976      0.134044
  C      -0.348235      2.337210      0.146072
  C      -1.141674      3.478489      0.090501
  C      -2.525728      3.363615      0.065523
  H      -4.819458      0.907412      0.092222
  H      -4.927495      2.368316     -0.860225
  H      -4.999845      2.454835      0.883433
  H      -0.643728     -0.975877      0.293391
  H       1.755779     -0.815528      0.232746
  H       3.971122      2.860393      1.433127
  H       6.298493      1.743137      1.424010
  H       7.293132     -0.556434      0.119062
  H       1.501010      3.365888      0.125665
  H      -0.701472      4.411619      0.067805
  H      -3.129812      4.199000      0.018225
33
Coordinates from ORCA-job geom_m5 E -1254.593853362084
  C      -4.599220      1.990747      0.057810
  C      -3.100335      2.124573      0.106619
  N      -2.380636      0.996078      0.175873
  C      -1.032463      1.098895      0.188660
  C      -0.248976     -0.057356      0.235078
  C       1.133863      0.016241      0.202433
  C       1.800051      1.256145      0.129822
  C       3.262926      1.277611      0.110162
  C       4.165430      1.958765      0.903362
  C       5.468854      1.383491      0.873662
  C       5.545971      0.305038      0.016148
  C       6.399510     -0.843121      0.147980
  C       6.457459     -2.167779      0.307871
  C       5.102078     -2.797407      0.293217
  N       4.023107     -3.291887      0.281344
  C       7.663857     -2.892083      0.301432
  N       8.657594     -3.483348      0.310888
  S       4.130720      0.257972     -0.995892
  C       1.039360      2.420457      0.126476
  C      -0.365910      2.351165      0.140073
  C      -1.153170      3.508370      0.083230
  C      -2.531950      3.401330      0.062125
  H      -4.873031      0.947940      0.102112
  H      -4.973286      2.419541     -0.860947
  H      -5.039836      2.512043      0.895751
  H      -0.719961     -1.003086      0.296450
  H       1.699980     -0.876823      0.234186
  H       3.919223      2.821449      1.463364
  H       6.286161      1.747408      1.438059
  H       7.404209     -0.486171      0.105991
  H       1.518177      3.364294      0.113680
  H      -0.693244      4.461763      0.056745
  H      -3.142134      4.263997      0.013595
33
Coordinates from ORCA-job geom_m5 E -1254.622077716191
  C      -4.629499      2.048627      0.063569
  C      -3.127352      2.160825      0.105336
  N      -2.428357      1.033446      0.179602
  C      -1.070348      1.110426      0.190027
  C      -0.306387     -0.072065      0.244373
  C       1.069292     -0.027089      0.212530
  C       1.763062      1.206572      0.133355
  C       3.228741      1.205573      0.118792
  C       4.122814      1.888137      0.918780
  C       5.437433      1.353395      0.876301
  C       5.558102      0.284887      0.006824
  C       6.500732     -0.792002      0.124931
  C       6.529032     -2.136885      0.277881
  C       5.238404     -2.819623      0.274998
  N       4.220743     -3.344446      0.272518
  C       7.737918     -2.866483      0.297591
  N       8.729508     -3.459254      0.328562
  S       4.104073      0.148278     -0.966084
  C       1.031377      2.385662      0.118241
  C      -0.377918      2.355351      0.132390
  C      -1.154477      3.530254      0.068244
  C      -2.525742      3.436856      0.051163
  H      -4.924254      1.005728      0.116373
  H      -5.009396      2.479733     -0.860641
  H      -5.068681      2.586634      0.901491
  H      -0.807853     -1.019424      0.312645
  H       1.625781     -0.944240      0.252372
  H       3.857624      2.752947      1.495776
  H       6.256461      1.748433      1.446434
  H       7.511802     -0.397823      0.096166
  H       1.539363      3.332175      0.095598
  H      -0.674294      4.491398      0.033560
  H      -3.133330      4.320251     -0.002341
33
Coordinates from ORCA-job geom_m5 E -1254.642733984023
  C      -4.670235      2.182211      0.044800
  C      -3.165300      2.240125      0.084426
  N      -2.506880      1.100175      0.191898
  C      -1.141786      1.126493      0.208072
  C      -0.424896     -0.090472      0.302266
  C       0.946487     -0.101775      0.283986
  C       1.690585      1.106171      0.180389
  C       3.157037      1.057769      0.189286
  C       4.043775      1.753384      0.982948
  C       5.373894      1.281058      0.906505
  C       5.538403      0.222949      0.030440
  C       6.618321     -0.720332      0.080623
  C       6.690473     -2.077438      0.195052
  C       5.499534     -2.874554      0.237733
  N       4.532686     -3.508450      0.273451
  C       7.942307     -2.743679      0.205647
  N       8.964196     -3.282982      0.229070
  S       4.025338     -0.087603     -0.823453
  C       1.009373      2.310095      0.117138
  C      -0.401287      2.344393      0.120316
  C      -1.140829      3.547985      0.017287
  C      -2.507479      3.497145     -0.002889
  H      -5.008435      1.150709      0.127253
  H      -5.042178      2.603442     -0.892890
  H      -5.097983      2.763801      0.865657
  H      -0.975564     -1.020099      0.392458
  H       1.472000     -1.046511      0.358650
  H       3.758252      2.617317      1.570001
  H       6.194585      1.726309      1.455799
  H       7.602172     -0.240142      0.049054
  H       1.560675      3.243043      0.064199
  H      -0.621467      4.499111     -0.043604
  H      -3.091401      4.406609     -0.084214
33
Coordinates from ORCA-job geom_m5 E -1254.655125941773
  C      -4.690928      2.344744     -0.003732
  C      -3.187707      2.329750      0.041918
  N      -2.581497      1.171319      0.212407
  C      -1.215415      1.136290      0.245503
  C      -0.562551     -0.109216      0.415229
  C       0.805412     -0.187892      0.431674
  C       1.609241      0.978226      0.288579
  C       3.072149      0.875564      0.342845
  C       3.957616      1.634045      1.073638
  C       5.297505      1.222895      0.953623
  C       5.472296      0.121685      0.137058
  C       6.676444     -0.652904      0.068420
  C       6.847878     -2.008594      0.071715
  C       5.778821     -2.949439      0.127281
  N       4.915096     -3.714205      0.175231
  C       8.162464     -2.555564      0.016654
  N       9.229897     -2.998504     -0.013227
  S       3.921755     -0.384023     -0.539859
  C       0.989431      2.204164      0.134034
  C      -0.417497      2.310296      0.108221
  C      -1.101454      3.540970     -0.068776
  C      -2.465553      3.550380     -0.102036
  H      -5.083395      1.338369      0.129256
  H      -5.043493      2.737318     -0.961381
  H      -5.097146      2.989953      0.779797
  H      -1.167072     -1.000933      0.538743
  H       1.284813     -1.149940      0.572483
  H       3.655954      2.504927      1.642261
  H       6.122823      1.731507      1.437449
  H       7.597537     -0.070298      0.043232
  H       1.585416      3.105181      0.028565
  H      -0.535125      4.461243     -0.173341
  H      -3.009339      4.478942     -0.236110
33
Coordinates from ORCA-job geom_m5 E -1254.661059750147
  C      -4.686329      2.438559     -0.068389
  C      -3.186750      2.377591     -0.003004
  N      -2.618062      1.211192      0.235195
  C      -1.254661      1.138162      0.293404
  C      -0.646103     -0.115634      0.541443
  C       0.718396     -0.234087      0.598692
  C       1.560389      0.898980      0.418229
  C       3.018487      0.768158      0.507156
  C       3.913018      1.611352      1.125444
  C       5.253255      1.213023      0.988808
  C       5.414789      0.031986      0.288438
  C       6.667339     -0.637335      0.118542
  C       6.917531     -1.972321     -0.036562
  C       5.934760     -3.004298     -0.053055
  N       5.152655     -3.857081     -0.065750
  C       8.268441     -2.416627     -0.170307
  N       9.362703     -2.778773     -0.264183
  S       3.847574     -0.591070     -0.225039
  C       0.982388      2.131066      0.175651
  C      -0.419512      2.277599      0.111367
  C      -1.061714      3.516918     -0.143485
  C      -2.424449      3.566262     -0.199269
  H      -5.114983      1.454698      0.111712
  H      -5.017629      2.793385     -1.047847
  H      -5.080955      3.137360      0.673569
  H      -1.284000     -0.977637      0.691980
  H       1.164758     -1.199334      0.803240
  H       3.609645      2.512275      1.640806
  H       6.088883      1.772607      1.388039
  H       7.540974      0.005425      0.139919
  H       1.606174      3.004071      0.021521
  H      -0.463933      4.409798     -0.288061
  H      -2.938705      4.499989     -0.390849
33
Coordinates from ORCA-job geom_m5 E -1254.664400247545
  C      -4.676763      2.464664     -0.096164
  C      -3.179025      2.387327     -0.021403
  N      -2.626325      1.221371      0.256619
  C      -1.264800      1.134855      0.327576
  C      -0.674076     -0.117448      0.621316
  C       0.687767     -0.248443      0.702534
  C       1.544835      0.868947      0.498307
  C       2.999839      0.733514      0.599835
  C       3.905219      1.652797      1.084846
  C       5.240421      1.237421      0.970055
  C       5.388472     -0.026662      0.422421
  C       6.646793     -0.659907      0.226056
  C       6.925328     -1.963394     -0.086505
  C       5.972456     -3.002227     -0.271833
  N       5.223957     -3.871199     -0.425473
  C       8.288968     -2.368306     -0.224845
  N       9.392296     -2.701687     -0.323654
  S       3.811949     -0.705701      0.027154
  C       0.984027      2.099020      0.204294
  C      -0.415120      2.258021      0.117208
  C      -1.039502      3.495780     -0.183302
  C      -2.401525      3.559736     -0.250450
  H      -5.119956      1.492992      0.113157
  H      -5.000358      2.793277     -1.087387
  H      -5.066119      3.192242      0.620649
  H      -1.325704     -0.965808      0.787402
  H       1.120051     -1.210997      0.945848
  H       3.605672      2.594564      1.522165
  H       6.085611      1.829785      1.293763
  H       7.504565     -0.012134      0.358185
  H       1.618426      2.957492      0.018677
  H      -0.428520      4.374747     -0.353540
  H      -2.904484      4.491616     -0.476155
33
Coordinates from ORCA-job geom_m5 E -1254.665494160638
  C      -4.678937      2.464310     -0.080872
  C      -3.180730      2.387324     -0.010548
  N      -2.628385      1.220086      0.267277
  C      -1.267545      1.133505      0.335072
  C      -0.675321     -0.117905      0.628841
  C       0.686433     -0.247445      0.709770
  C       1.543522      0.869173      0.502911
  C       2.997228      0.735616      0.597549
  C       3.913947      1.693455      0.986830
  C       5.241815      1.251859      0.920209
  C       5.378980     -0.061053      0.488021
  C       6.630744     -0.701019      0.320979
  C       6.935110     -1.978263     -0.072263
  C       5.987317     -2.986696     -0.400984
  N       5.245988     -3.834175     -0.672106
  C       8.303119     -2.375084     -0.164131
  N       9.410699     -2.704061     -0.226986
  S       3.794753     -0.754376      0.152515
  C       0.980694      2.099981      0.207931
  C      -0.418333      2.256632      0.121564
  C      -1.042125      3.493888     -0.179155
  C      -2.404916      3.558652     -0.243269
  H      -5.121251      1.493091      0.131114
  H      -5.005148      2.791525     -1.071426
  H      -5.065112      3.192609      0.636618
  H      -1.325834     -0.966412      0.795285
  H       1.117628     -1.209269      0.956025
  H       3.622914      2.670819      1.342253
  H       6.093837      1.858401      1.194538
  H       7.479890     -0.068312      0.548829
  H       1.612643      2.958057      0.016936
  H      -0.431200      4.371596     -0.352765
  H      -2.908049      4.489744     -0.469206
33
Coordinates from ORCA-job geom_m5 E -1254.665723899286
  C      -4.686410      2.459056     -0.047856
  C      -3.187088      2.386505      0.011773
  N      -2.629438      1.215922      0.262452
  C      -1.267965      1.132365      0.320234
  C      -0.668486     -0.122821      0.584681
  C       0.693680     -0.248544      0.653915
  C       1.546770      0.874832      0.463484
  C       3.000827      0.744037      0.545626
  C       3.921691      1.712579      0.902998
  C       5.245727      1.262629      0.866082
  C       5.381861     -0.066507      0.481977
  C       6.631275     -0.717757      0.360761
  C       6.944333     -1.995938     -0.027623
  C       5.996775     -2.986777     -0.401817
  N       5.252615     -3.818216     -0.708340
  C       8.309817     -2.403250     -0.070874
  N       9.416216     -2.741211     -0.095198
  S       3.796433     -0.761129      0.147338
  C       0.976374      2.109641      0.198406
  C      -0.423441      2.262885      0.124316
  C      -1.053405      3.504085     -0.147316
  C      -2.416532      3.565063     -0.201903
  H      -5.123498      1.481753      0.147265
  H      -5.019684      2.804671     -1.030053
  H      -5.070638      3.171297      0.687009
  H      -1.314468     -0.978099      0.738511
  H       1.128223     -1.214794      0.878827
  H       3.634462      2.706053      1.216070
  H       6.098986      1.874433      1.127646
  H       7.477085     -0.089645      0.620075
  H       1.602989      2.975350      0.021594
  H      -0.446540      4.388194     -0.306779
  H      -2.924173      4.499594     -0.405926
33
Coordinates from ORCA-job geom_m5 E -1254.665813047434
  C      -4.691921      2.452946     -0.026558
  C      -3.191977      2.385202      0.028537
  N      -2.629293      1.211074      0.250094
  C      -1.267636      1.131296      0.302558
  C      -0.661605     -0.127146      0.535181
  C       0.701141     -0.248768      0.596311
  C       1.550481      0.881590      0.429156
  C       3.004551      0.752428      0.502417
  C       3.928538      1.724333      0.846009
  C       5.250592      1.271264      0.822254
  C       5.386382     -0.063946      0.458487
  C       6.633382     -0.724284      0.368697
  C       6.950636     -2.011584      0.012731
  C       5.998123     -2.999926     -0.358933
  N       5.245441     -3.825404     -0.661578
  C       8.313308     -2.424845     -0.000417
  N       9.418568     -2.767545     -0.000928
  S       3.799579     -0.760295      0.129256
  C       0.972716      2.120012      0.196717
  C      -0.427557      2.269371      0.131484
  C      -1.062996      3.514418     -0.108611
  C      -2.426469      3.571426     -0.158604
  H      -5.124060      1.469285      0.146014
  H      -5.027970      2.820184     -0.999844
  H      -5.077208      3.145623      0.726127
  H      -1.302582     -0.989219      0.671144
  H       1.138133     -1.219335      0.796211
  H       3.645680      2.727254      1.131454
  H       6.104515      1.886310      1.074066
  H       7.478188     -0.092736      0.624964
  H       1.593630      2.993578      0.040103
  H      -0.460326      4.404789     -0.248020
  H      -2.937610      4.508904     -0.339122
33
Coordinates from ORCA-job geom_m5 E -1254.665841922428
  C      -4.694160      2.449918     -0.017296
  C      -3.194106      2.384300      0.036847
  N      -2.628831      1.207789      0.237154
  C      -1.267055      1.129914      0.288416
  C      -0.657999     -0.131157      0.498793
  C       0.704810     -0.250799      0.557748
  C       1.552700      0.883891      0.410516
  C       3.006577      0.755706      0.480561
  C       3.931553      1.729886      0.815962
  C       5.253371      1.278257      0.791220
  C       5.389919     -0.059754      0.437855
  C       6.636472     -0.722169      0.362748
  C       6.951475     -2.018796      0.037030
  C       5.996468     -3.011976     -0.312493
  N       5.237734     -3.838343     -0.596210
  C       8.312608     -2.435545      0.036609
  N       9.417113     -2.780681      0.045968
  S       3.802298     -0.759455      0.116589
  C       0.971373      2.124633      0.199958
  C      -0.428994      2.272491      0.137961
  C      -1.067259      3.520559     -0.079454
  C      -2.430673      3.575447     -0.128441
  H      -5.124171      1.462203      0.136902
  H      -5.030716      2.834490     -0.983773
  H      -5.081106      3.127717      0.748082
  H      -1.296774     -0.997360      0.619603
  H       1.142398     -1.224735      0.740246
  H       3.650629      2.736111      1.092222
  H       6.107572      1.895944      1.036382
  H       7.482119     -0.085784      0.604421
  H       1.589262      3.003304      0.059341
  H      -0.466578      4.414957     -0.202258
  H      -2.943653      4.515291     -0.291852
33
Coordinates from ORCA-job geom_m5 E -1254.665852418152
  C      -4.694728      2.448988     -0.016917
  C      -3.194841      2.384035      0.038924
  N      -2.628573      1.205901      0.226929
  C      -1.266945      1.128950      0.279742
  C      -0.656797     -0.133523      0.477711
  C       0.705995     -0.252222      0.538242
  C       1.553579      0.884558      0.404771
  C       3.007090      0.756562      0.475460
  C       3.933120      1.732733      0.802778
  C       5.254913      1.281746      0.774779
  C       5.391155     -0.058076      0.427691
  C       6.637668     -0.720040      0.353993
  C       6.951441     -2.022066      0.047932
  C       5.995150     -3.021831     -0.278539
  N       5.232443     -3.851152     -0.543109
  C       8.312864     -2.437793      0.047913
  N       9.417809     -2.781671      0.057047
  S       3.802280     -0.760923      0.119498
  C       0.970640      2.126640      0.206060
  C      -0.429631      2.273742      0.143337
  C      -1.068817      3.523579     -0.061148
  C      -2.432200      3.577701     -0.111638
  H      -5.124137      1.459147      0.124550
  H      -5.029958      2.845125     -0.979122
  H      -5.083541      3.117091      0.755947
  H      -1.294520     -1.001765      0.587806
  H       1.143064     -1.228040      0.711149
  H       3.654114      2.740398      1.075204
  H       6.109783      1.901284      1.012295
  H       7.483998     -0.079487      0.580337
  H       1.586629      3.008057      0.075680
  H      -0.468940      4.419838     -0.172750
  H      -2.945732      4.518768     -0.265201
33
Coordinates from ORCA-job geom_m5 E -1254.665855221243
  C      -4.694590      2.448631     -0.019017
  C      -3.194830      2.383807      0.038341
  N      -2.628381      1.205106      0.222411
  C      -1.266842      1.128484      0.276776
  C      -0.656489     -0.134457      0.471008
  C       0.706233     -0.252771      0.533404
  C       1.553855      0.884634      0.405260
  C       3.007208      0.756741      0.477170
  C       3.933828      1.734207      0.799188
  C       5.255614      1.283237      0.769344
  C       5.391197     -0.058039      0.427181
  C       6.637855     -0.719224      0.350964
  C       6.950482     -2.022856      0.050388
  C       5.994092     -3.025795     -0.265194
  N       5.229948     -3.856561     -0.520881
  C       8.312461     -2.437554      0.046530
  N       9.417788     -2.780283      0.052021
  S       3.801756     -0.762221      0.126037
  C       0.970544      2.127169      0.210045
  C      -0.429683      2.273979      0.145795
  C      -1.069000      3.524404     -0.054652
  C      -2.432344      3.578289     -0.106582
  H      -5.124066      1.458036      0.116885
  H      -5.028799      2.849768     -0.979509
  H      -5.084557      3.112721      0.756744
  H      -1.293979     -1.003392      0.576694
  H       1.142875     -1.229280      0.703486
  H       3.655873      2.742364      1.070761
  H       6.111031      1.903688      1.002395
  H       7.484791     -0.077146      0.570217
  H       1.585795      3.009596      0.083317
  H      -0.469245      4.421232     -0.162102
  H      -2.946045      4.519742     -0.257070
33
Coordinates from ORCA-job geom_m5 E -1254.665855414859
  C      -4.694478      2.448246     -0.020400
  C      -3.194752      2.383569      0.037675
  N      -2.628239      1.204703      0.220789
  C      -1.266747      1.128293      0.275953
  C      -0.656228     -0.134685      0.469339
  C       0.706486     -0.252685      0.532667
  C       1.554023      0.884927      0.406082
  C       3.007362      0.757175      0.478599
  C       3.934346      1.735155      0.798110
  C       5.256064      1.283726      0.768521
  C       5.391074     -0.058279      0.428931
  C       6.637702     -0.719457      0.350786
  C       6.949842     -2.023240      0.050829
  C       5.993145     -3.027184     -0.260785
  N       5.228182     -3.858181     -0.513318
  C       8.312146     -2.437345      0.043820
  N       9.417691     -2.779372      0.046261
  S       3.801488     -0.762648      0.130215
  C       0.970530      2.127541      0.211710
  C      -0.429712      2.274057      0.146643
  C      -1.069078      3.524573     -0.052812
  C      -2.432430      3.578309     -0.105482
  H      -5.123953      1.457309      0.112906
  H      -5.028236      2.851739     -0.980051
  H      -5.084974      3.110405      0.756753
  H      -1.293535     -1.003896      0.573630
  H       1.143013     -1.229335      0.702136
  H       3.657052      2.743744      1.068649
  H       6.111753      1.904475      0.999685
  H       7.485061     -0.077114      0.567617
  H       1.585404      3.010358      0.086147
  H      -0.469392      4.421573     -0.159024
  H      -2.946237      4.519799     -0.255227
