33
Coordinates from ORCA-job geom_m3 E -931.655168091918
  C      -5.217012      1.171606      0.050973
  C      -3.723465      1.322815      0.116842
  N      -2.977749      0.194738      0.158292
  C      -1.640857      0.326257      0.209573
  C      -0.824497     -0.791998      0.253040
  C       0.567517     -0.678174      0.301716
  C       1.192490      0.571548      0.311587
  C       2.641582      0.682374      0.346656
  C       3.561700      1.715019      0.358860
  C       4.862283      1.123565      0.383967
  C       4.650369     -0.230628      0.387892
  C       5.446788     -1.403657      0.394884
  C       5.511967     -2.697182      0.377177
  C       4.254242     -3.377510      0.339854
  N       3.242992     -3.946990      0.310624
  C       6.709338     -3.633133      0.403566
  N       7.702657     -4.409583      0.425458
  O       3.316683     -0.500339      0.367636
  C       0.382537      1.704860      0.273602
  C      -1.013295      1.586001      0.225006
  C      -1.813304      2.724026      0.184058
  C      -3.194679      2.601173      0.128600
  H      -5.470528      0.132074      0.049363
  H      -5.582696      1.629295     -0.844402
  H      -5.661345      1.645774      0.901050
  H      -1.253958     -1.730387      0.249396
  H       1.144718     -1.533165      0.330920
  H       3.348597      2.724748      0.351250
  H       5.770598      1.613289      0.396514
  H       6.424755     -1.076032      0.430457
  H       0.815049      2.641822      0.281333
  H      -1.379023      3.660138      0.194939
  H      -3.804905      3.432839      0.097287
33
Coordinates from ORCA-job geom_m3 E -931.710260729632
  C      -5.230778      1.182304      0.052465
  C      -3.733760      1.335412      0.116730
  N      -2.998270      0.216238      0.157540
  C      -1.650948      0.337132      0.208734
  C      -0.841755     -0.805180      0.252022
  C       0.539144     -0.706238      0.299998
  C       1.180898      0.548724      0.309921
  C       2.630268      0.643715      0.345569
  C       3.543273      1.679749      0.357722
  C       4.839625      1.102208      0.384311
  C       4.651050     -0.258175      0.389097
  C       5.504751     -1.386053      0.398337
  C       5.540574     -2.717032      0.379017
  C       4.297609     -3.437048      0.340547
  N       3.303611     -4.029197      0.310547
  C       6.724550     -3.592333      0.404612
  N       7.670233     -4.298322      0.424995
  O       3.307958     -0.537679      0.367233
  C       0.394445      1.696763      0.272459
  C      -1.007053      1.602598      0.223946
  C      -1.810241      2.751335      0.182926
  C      -3.185001      2.623684      0.128694
  H      -5.491134      0.133539      0.051521
  H      -5.607089      1.644645     -0.851067
  H      -5.684991      1.662749      0.909591
  H      -1.295959     -1.765490      0.247982
  H       1.121880     -1.592751      0.329819
  H       3.318345      2.715171      0.349150
  H       5.766256      1.616250      0.397844
  H       6.510661     -1.022012      0.434645
  H       0.854362      2.654474      0.280602
  H      -1.362339      3.715206      0.193647
  H      -3.810625      3.480795      0.096818
33
Coordinates from ORCA-job geom_m3 E -931.728189371566
  C      -5.232859      1.189970      0.060866
  C      -3.734358      1.340896      0.118675
  N      -3.006724      0.235140      0.154862
  C      -1.649940      0.345291      0.203745
  C      -0.854124     -0.823045      0.242702
  C       0.514179     -0.745146      0.288556
  C       1.175963      0.511999      0.300289
  C       2.624527      0.587572      0.338807
  C       3.524554      1.634078      0.354532
  C       4.814012      1.075833      0.387343
  C       4.656953     -0.293460      0.390744
  C       5.583250     -1.348985      0.406023
  C       5.543575     -2.707679      0.385932
  C       4.303064     -3.430324      0.344288
  N       3.309621     -4.020945      0.311653
  C       6.698059     -3.526318      0.411075
  N       7.617444     -4.196319      0.430890
  O       3.307405     -0.589985      0.361127
  C       0.416909      1.673772      0.266118
  C      -0.989299      1.611809      0.219320
  C      -1.798488      2.770473      0.181857
  C      -3.162020      2.637268      0.132047
  H      -5.503444      0.136075      0.059911
  H      -5.625305      1.658947     -0.844126
  H      -5.696136      1.676180      0.922238
  H      -1.337583     -1.790530      0.236169
  H       1.094819     -1.655433      0.316650
  H       3.284823      2.683639      0.345325
  H       5.748419      1.611567      0.406343
  H       6.601092     -0.960418      0.442175
  H       0.900715      2.641356      0.275720
  H      -1.340778      3.751548      0.193025
  H      -3.798779      3.510353      0.103089
33
Coordinates from ORCA-job geom_m3 E -931.731864005876
  C      -5.229890      1.185758      0.071723
  C      -3.732420      1.335835      0.122121
  N      -3.002773      0.236872      0.151282
  C      -1.643020      0.346836      0.196270
  C      -0.852666     -0.830484      0.228119
  C       0.512372     -0.759926      0.271518
  C       1.179523      0.498569      0.286534
  C       2.627308      0.566897      0.329220
  C       3.521058      1.620217      0.352569
  C       4.807235      1.068214      0.391636
  C       4.662729     -0.305931      0.390289
  C       5.622094     -1.325788      0.411530
  C       5.522184     -2.693430      0.394792
  C       4.273031     -3.392835      0.352572
  N       3.270402     -3.967966      0.319350
  C       6.671784     -3.511734      0.420914
  N       7.603913     -4.197782      0.441832
  O       3.312641     -0.607958      0.351372
  C       0.428259      1.663495      0.257268
  C      -0.979117      1.613001      0.213098
  C      -1.793976      2.773723      0.181947
  C      -3.152376      2.636120      0.137417
  H      -5.504940      0.131094      0.069265
  H      -5.633904      1.659867     -0.828894
  H      -5.695432      1.672365      0.935179
  H      -1.350027     -1.797817      0.217814
  H       1.094329     -1.676662      0.295762
  H       3.274525      2.673489      0.344808
  H       5.744936      1.609246      0.418296
  H       6.644039     -0.936406      0.445843
  H       0.917206      2.635452      0.268733
  H      -1.333442      3.760522      0.194308
  H      -3.796034      3.512331      0.113484
33
Coordinates from ORCA-job geom_m3 E -931.732622610212
  C      -5.223561      1.176166      0.079455
  C      -3.728501      1.326619      0.125311
  N      -2.993555      0.231008      0.149252
  C      -1.633955      0.345791      0.190749
  C      -0.844167     -0.831700      0.217199
  C       0.521454     -0.761213      0.259042
  C       1.186871      0.498401      0.277074
  C       2.634071      0.565750      0.322769
  C       3.526200      1.622597      0.353183
  C       4.810757      1.069697      0.394064
  C       4.667328     -0.307142      0.387787
  C       5.638250     -1.315197      0.412850
  C       5.495887     -2.683790      0.400218
  C       4.239429     -3.357550      0.358954
  N       3.228666     -3.919344      0.326396
  C       6.645077     -3.517747      0.428876
  N       7.571637     -4.211644      0.451764
  O       3.319394     -0.607779      0.343746
  C       0.433648      1.661507      0.251288
  C      -0.973289      1.611340      0.208771
  C      -1.792902      2.770335      0.182303
  C      -3.149360      2.629138      0.141488
  H      -5.499361      0.122924      0.075490
  H      -5.633726      1.652708     -0.815811
  H      -5.689050      1.660941      0.942613
  H      -1.345815     -1.794252      0.203968
  H       1.105547     -1.674137      0.279514
  H       3.278201      2.673070      0.347967
  H       5.748772      1.605963      0.425691
  H       6.658044     -0.936734      0.445929
  H       0.917760      2.633461      0.263779
  H      -1.333747      3.755380      0.195268
  H      -3.796455      3.500614      0.121026
33
Coordinates from ORCA-job geom_m3 E -931.732761068549
  C      -5.219601      1.169837      0.082567
  C      -3.725945      1.321381      0.126456
  N      -2.988038      0.226503      0.148680
  C      -1.629197      0.345124      0.188731
  C      -0.838238     -0.830146      0.213161
  C       0.528414     -0.757535      0.254647
  C       1.190940      0.502855      0.274192
  C       2.637910      0.571614      0.320938
  C       3.530870      1.628646      0.354161
  C       4.815116      1.072838      0.394832
  C       4.668066     -0.304503      0.385283
  C       5.639201     -1.314768      0.412072
  C       5.480908     -2.681872      0.401589
  C       4.224055     -3.346698      0.360510
  N       3.212969     -3.908578      0.328091
  C       6.628826     -3.522755      0.432840
  N       7.554362     -4.218033      0.457870
  O       3.322632     -0.601684      0.339510
  C       0.434407      1.664076      0.249357
  C      -0.971929      1.610653      0.207189
  C      -1.793347      2.767868      0.182238
  C      -3.149979      2.624800      0.142754
  H      -5.495126      0.117182      0.078085
  H      -5.631944      1.647047     -0.810301
  H      -5.684515      1.653536      0.945585
  H      -1.340247     -1.789703      0.198659
  H       1.114634     -1.666353      0.273303
  H       3.283097      2.676955      0.350616
  H       5.754098      1.603111      0.428318
  H       6.657429     -0.944763      0.445369
  H       0.913859      2.635749      0.262026
  H      -1.335310      3.750729      0.195187
  H      -3.798827      3.492066      0.123457
33
Coordinates from ORCA-job geom_m3 E -931.732771712634
  C      -5.218207      1.167898      0.083128
  C      -3.724730      1.319972      0.126652
  N      -2.986501      0.224962      0.148622
  C      -1.627844      0.344621      0.188374
  C      -0.836194     -0.829714      0.212487
  C       0.530621     -0.756060      0.254006
  C       1.192023      0.504683      0.273812
  C       2.638947      0.574491      0.320717
  C       3.532403      1.631111      0.355214
  C       4.816836      1.074523      0.394595
  C       4.667800     -0.302599      0.383987
  C       5.637411     -1.315386      0.411219
  C       5.475677     -2.681524      0.401541
  C       4.219303     -3.345594      0.360688
  N       3.210368     -3.911434      0.328498
  C       6.622845     -3.523696      0.433841
  N       7.549227     -4.217407      0.459782
  O       3.323784     -0.598846      0.338400
  C       0.434457      1.665420      0.249065
  C      -0.971737      1.610395      0.206900
  C      -1.793248      2.767116      0.182090
  C      -3.150164      2.623584      0.142816
  H      -5.493781      0.115273      0.078335
  H      -5.630946      1.645470     -0.809277
  H      -5.682886      1.651187      0.946429
  H      -1.338375     -1.788640      0.197760
  H       1.117942     -1.663622      0.272388
  H       3.284121      2.678965      0.352865
  H       5.756809      1.602245      0.428144
  H       6.655989     -0.948431      0.444559
  H       0.912614      2.637247      0.261780
  H      -1.335162      3.749412      0.194953
  H      -3.799851      3.489563      0.123607
33
Coordinates from ORCA-job geom_m3 E -931.732779306338
  C      -5.217370      1.166755      0.083243
  C      -3.723789      1.319232      0.126564
  N      -2.985717      0.224023      0.149043
  C      -1.627058      0.344126      0.188740
  C      -0.834845     -0.829694      0.213346
  C       0.531887     -0.755289      0.254935
  C       1.192600      0.505762      0.274305
  C       2.639516      0.576476      0.321220
  C       3.533331      1.632635      0.356069
  C       4.818041      1.075966      0.395332
  C       4.667739     -0.300880      0.383080
  C       5.635978     -1.315665      0.410394
  C       5.471836     -2.680957      0.400715
  C       4.215622     -3.345128      0.359474
  N       3.209812     -3.916474      0.327033
  C       6.618225     -3.524083      0.433720
  N       7.546102     -4.215498      0.460312
  O       3.324896     -0.596999      0.337497
  C       0.434590      1.666317      0.248973
  C      -0.971634      1.610219      0.206744
  C      -1.793030      2.766759      0.181309
  C      -3.150121      2.622968      0.142054
  H      -5.493113      0.114117      0.078405
  H      -5.630326      1.644467     -0.809065
  H      -5.681890      1.649922      0.946798
  H      -1.337467     -1.788435      0.198968
  H       1.120182     -1.662226      0.273729
  H       3.284018      2.680339      0.354506
  H       5.759068      1.601797      0.429231
  H       6.655440     -0.950966      0.444051
  H       0.912237      2.638430      0.261221
  H      -1.334567      3.748905      0.193678
  H      -3.800647      3.488258      0.122349
33
Coordinates from ORCA-job geom_m3 E -931.732786116106
  C      -5.217318      1.166648      0.083123
  C      -3.723586      1.319224      0.126403
  N      -2.985702      0.223962      0.149283
  C      -1.626963      0.343998      0.189012
  C      -0.834574     -0.829834      0.214056
  C       0.532018     -0.755269      0.255619
  C       1.192647      0.505893      0.274530
  C       2.639556      0.576868      0.321406
  C       3.533394      1.632807      0.357312
  C       4.818304      1.076469      0.395175
  C       4.667924     -0.300276      0.382884
  C       5.635798     -1.315509      0.410073
  C       5.470827     -2.680529      0.400335
  C       4.214393     -3.344902      0.359085
  N       3.210738     -3.919974      0.326670
  C       6.616749     -3.524217      0.433253
  N       7.545725     -4.214158      0.459828
  O       3.325334     -0.596785      0.337357
  C       0.434703      1.666475      0.248851
  C      -0.971617      1.610238      0.206630
  C      -1.792948      2.766838      0.180748
  C      -3.150016      2.623001      0.141456
  H      -5.493122      0.113997      0.078048
  H      -5.630350      1.644602     -0.809087
  H      -5.681759      1.649561      0.946941
  H      -1.337506     -1.788647      0.200016
  H       1.120643     -1.662200      0.274815
  H       3.283308      2.680513      0.356800
  H       5.759778      1.601803      0.428828
  H       6.655815     -0.951460      0.443558
  H       0.912472      2.638724      0.260752
  H      -1.334220      3.749078      0.192818
  H      -3.800898      3.488243      0.121392
33
Coordinates from ORCA-job geom_m3 E -931.732792497798
  C      -5.217470      1.166784      0.082865
  C      -3.723667      1.319372      0.126133
  N      -2.985852      0.224172      0.150051
  C      -1.627070      0.344079      0.189853
  C      -0.834705     -0.829898      0.215990
  C       0.531798     -0.755397      0.257569
  C       1.192557      0.505780      0.275421
  C       2.639452      0.576719      0.322306
  C       3.533237      1.632604      0.357913
  C       4.818154      1.076546      0.396751
  C       4.668176     -0.300185      0.383312
  C       5.636116     -1.315252      0.409854
  C       5.470936     -2.680259      0.399187
  C       4.214168     -3.344525      0.357419
  N       3.211856     -3.921880      0.324575
  C       6.616466     -3.524455      0.431557
  N       7.546059     -4.213650      0.457719
  O       3.325405     -0.597078      0.337654
  C       0.434784      1.666396      0.248652
  C      -0.971599      1.610342      0.206433
  C      -1.792934      2.767015      0.179461
  C      -3.149918      2.623166      0.140129
  H      -5.493212      0.114113      0.078066
  H      -5.630495      1.644495     -0.809492
  H      -5.681901      1.649862      0.946616
  H      -1.337766     -1.788797      0.202783
  H       1.120394     -1.662467      0.277668
  H       3.282763      2.680315      0.357392
  H       5.759664      1.601964      0.430964
  H       6.656326     -0.951238      0.443568
  H       0.912791      2.638657      0.259633
  H      -1.334115      3.749361      0.190740
  H      -3.800849      3.488518      0.119229
33
Coordinates from ORCA-job geom_m3 E -931.732788533004
  C      -5.217618      1.166929      0.082850
  C      -3.723829      1.319492      0.126020
  N      -2.985953      0.224374      0.150308
  C      -1.627177      0.344229      0.190076
  C      -0.834898     -0.829850      0.216611
  C       0.531604     -0.755467      0.258171
  C       1.192493      0.505677      0.275575
  C       2.639378      0.576472      0.322455
  C       3.533066      1.632402      0.358663
  C       4.817963      1.076425      0.396847
  C       4.668317     -0.300340      0.383646
  C       5.636425     -1.315116      0.409944
  C       5.471386     -2.680219      0.398900
  C       4.214425     -3.344283      0.356988
  N       3.212585     -3.922453      0.324008
  C       6.616721     -3.524662      0.430930
  N       7.546459     -4.213717      0.456830
  O       3.325273     -0.597369      0.337755
  C       0.434795      1.666300      0.248428
  C      -0.971589      1.610442      0.206236
  C      -1.792975      2.767137      0.178876
  C      -3.149907      2.623288      0.139587
  H      -5.493244      0.114236      0.077920
  H      -5.630727      1.644753     -0.809389
  H      -5.681970      1.649826      0.946731
  H      -1.337905     -1.788783      0.203748
  H       1.120032     -1.662641      0.278605
  H       3.282570      2.680097      0.358623
  H       5.759326      1.602116      0.431058
  H       6.656555     -0.950887      0.443686
  H       0.912920      2.638511      0.259030
  H      -1.334222      3.749523      0.189844
  H      -3.800726      3.488738      0.118411
