33
Coordinates from ORCA-job geom_m3 E -931.732788533004
  C          -5.21761780519380      1.16692941408723      0.08284958195185
  C          -3.72382916497759      1.31949178686936      0.12601961951016
  N          -2.98595294742663      0.22437409095652      0.15030780036316
  C          -1.62717718152127      0.34422890607223      0.19007569442576
  C          -0.83489840469774     -0.82984997756428      0.21661082410988
  C           0.53160388794260     -0.75546659716235      0.25817112336695
  C           1.19249264123434      0.50567724885542      0.27557455858015
  C           2.63937784112325      0.57647224091198      0.32245524105886
  C           3.53306580975441      1.63240151175320      0.35866259963720
  C           4.81796322732973      1.07642455021226      0.39684736548445
  C           4.66831664008748     -0.30033996993477      0.38364597591422
  C           5.63642466726912     -1.31511645154606      0.40994438951153
  C           5.47138566188611     -2.68021899341784      0.39889985345188
  C           4.21442481133105     -3.34428265023183      0.35698802713280
  N           3.21258457465305     -3.92245290356207      0.32400824200003
  C           6.61672059676129     -3.52466152322282      0.43093047434645
  N           7.54645882089935     -4.21371667110357      0.45682972726356
  O           3.32527307311962     -0.59736853828628      0.33775493291526
  C           0.43479521156127      1.66629957797685      0.24842765013034
  C          -0.97158860134886      1.61044239896514      0.20623587776554
  C          -1.79297538817072      2.76713715239708      0.17887599287408
  C          -3.14990740996718      2.62328768165489      0.13958748107799
  H          -5.49324379176611      0.11423636288238      0.07792039082031
  H          -5.63072691755551      1.64475344280776     -0.80938936297526
  H          -5.68197010104894      1.64982566500047      0.94673101682158
  H          -1.33790478825879     -1.78878279440572      0.20374846395694
  H           1.12003156667619     -1.66264117767869      0.27860522864497
  H           3.28257013942991      2.68009652102482      0.35862293736631
  H           5.75932580774968      1.60211633303065      0.43105843233455
  H           6.65655486908820     -0.95088714685026      0.44368565475010
  H           0.91292014255705      2.63851078977772      0.25902992074939
  H          -1.33422237306245      3.74952250528156      0.18984441874898
  H          -3.80072602285815      3.48873824524904      0.11841067091001
