36
Coordinates from ORCA-job geom_m1 E -933.819048510325
  C       6.592575      0.484441      2.099490
  C       5.240330      0.862058      1.564988
  N       4.320297     -0.118916      1.453229
  C       3.106649      0.217816      0.987477
  C       2.122948     -0.746686      0.851380
  C       0.858084     -0.409634      0.377179
  C       0.520123      0.906458      0.025296
  C      -0.831544      1.219875     -0.443048
  C      -1.374873      2.519422     -0.480063
  C      -2.731348      2.758799     -0.780094
  C      -3.544086      1.685801     -1.102006
  C      -4.986720      1.688130     -1.146986
  C      -6.095026      0.992025     -1.070330
  C      -5.689352     -0.458896     -0.868695
  N      -5.352811     -1.662555     -0.701422
  C      -7.382397      1.508823     -1.267010
  N      -8.447562      1.936105     -1.422820
  C      -2.969169      0.412085     -1.166690
  C      -1.655838      0.169971     -0.825638
  C       1.508992      1.876015      0.157924
  C       2.780777      1.537676      0.625185
  C       3.756087      2.519123      0.745684
  C       5.014329      2.183359      1.223396
  H       6.610750     -0.563324      2.315727
  H       6.789283      1.036808      2.994530
  H       7.340827      0.710882      1.368912
  H       2.329360     -1.725752      1.104062
  H       0.146480     -1.150892      0.281367
  H      -0.758981      3.323160     -0.280798
  H      -3.111886      3.717867     -0.760037
  H      -5.269948      2.666740     -1.311691
  H      -3.552249     -0.378600     -1.482695
  H      -1.284752     -0.792566     -0.854654
  H       1.300529      2.855458     -0.091592
  H       3.545554      3.494110      0.480917
  H       5.755921      2.894430      1.320573
36
Coordinates from ORCA-job geom_m1 E -933.878611867026
  C       6.645779      0.567847      2.110857
  C       5.281678      0.917508      1.577138
  N       4.394511     -0.078836      1.453955
  C       3.161668      0.223463      0.986490
  C       2.201927     -0.782612      0.840433
  C       0.933673     -0.488046      0.370430
  C       0.546691      0.827512      0.025251
  C      -0.819985      1.115765     -0.446631
  C      -1.364508      2.412826     -0.456278
  C      -2.707652      2.656142     -0.757515
  C      -3.537864      1.595262     -1.109777
  C      -4.983569      1.706468     -1.158056
  C      -6.156891      1.053435     -1.089348
  C      -5.993226     -0.417860     -0.891229
  N      -5.868725     -1.588116     -0.733203
  C      -7.397002      1.687997     -1.270505
  N      -8.417946      2.212322     -1.412711
  C      -2.964711      0.312513     -1.202462
  C      -1.650070      0.067416     -0.861747
  C       1.498784      1.832776      0.165525
  C       2.790374      1.543911      0.632731
  C       3.746882      2.557415      0.766927
  C       5.007464      2.246971      1.242487
  H       6.695038     -0.489941      2.318302
  H       6.833552      1.119337      3.021142
  H       7.400193      0.824355      1.380711
  H       2.448602     -1.780337      1.092778
  H       0.236687     -1.275401      0.270238
  H      -0.739027      3.234940     -0.229160
  H      -3.088946      3.642827     -0.717396
  H      -5.205733      2.738144     -1.306693
  H      -3.554542     -0.489668     -1.547220
  H      -1.273739     -0.917688     -0.917292
  H       1.249872      2.830461     -0.083529
  H       3.505472      3.554651      0.505621
  H       5.746647      2.995853      1.350787
36
Coordinates from ORCA-job geom_m1 E -933.901743631787
  C       6.671441      0.577478      2.095046
  C       5.301442      0.926261      1.570663
  N       4.418515     -0.057695      1.458153
  C       3.172043      0.236858      0.995068
  C       2.211457     -0.788166      0.862849
  C       0.946258     -0.512840      0.403314
  C       0.541303      0.803828      0.048489
  C      -0.837452      1.077650     -0.420602
  C      -1.375214      2.376846     -0.420362
  C      -2.702022      2.622694     -0.730609
  C      -3.547731      1.568762     -1.098415
  C      -4.972941      1.778463     -1.173473
  C      -6.131098      1.064144     -1.126035
  C      -6.031674     -0.371883     -0.972897
  N      -5.946734     -1.498731     -0.851779
  C      -7.392317      1.677370     -1.288611
  N      -8.424633      2.182475     -1.414850
  C      -2.993463      0.273343     -1.189871
  C      -1.679252      0.029118     -0.846594
  C       1.480808      1.820571      0.172327
  C       2.787270      1.559630      0.633013
  C       3.755572      2.579406      0.758349
  C       5.009201      2.265756      1.224367
  H       6.727794     -0.486453      2.309353
  H       6.877166      1.135838      3.008842
  H       7.433142      0.833557      1.357917
  H       2.478162     -1.798955      1.128258
  H       0.246737     -1.326831      0.318510
  H      -0.745210      3.214279     -0.172957
  H      -3.081415      3.631918     -0.688158
  H      -5.183822      2.839121     -1.298788
  H      -3.601859     -0.543653     -1.542926
  H      -1.303700     -0.976999     -0.911726
  H       1.220543      2.832445     -0.090176
  H       3.509165      3.595335      0.489161
  H       5.763876      3.028672      1.326198
36
Coordinates from ORCA-job geom_m1 E -933.910509526586
  C       6.725952      0.591583      2.002090
  C       5.339927      0.935769      1.521306
  N       4.452449     -0.037959      1.448399
  C       3.188381      0.251753      1.018142
  C       2.225315     -0.783555      0.929774
  C       0.950969     -0.523608      0.503397
  C       0.529248      0.789289      0.138659
  C      -0.865221      1.046473     -0.303974
  C      -1.417703      2.338444     -0.269501
  C      -2.731368      2.575044     -0.615374
  C      -3.572131      1.523281     -1.020791
  C      -4.966693      1.825666     -1.214623
  C      -6.114728      1.079729     -1.280358
  C      -6.124960     -0.335695     -1.142732
  N      -6.125976     -1.486323     -1.028839
  C      -7.368682      1.713406     -1.475406
  N      -8.390672      2.232557     -1.627518
  C      -3.010605      0.230437     -1.119880
  C      -1.695336      0.001475     -0.769419
  C       1.464854      1.810448      0.220719
  C       2.789102      1.570635      0.648415
  C       3.770006      2.591833      0.733219
  C       5.029006      2.277923      1.163340
  H       6.793705     -0.472499      2.228445
  H       6.972706      1.161838      2.903716
  H       7.471319      0.840557      1.239624
  H       2.512112     -1.794761      1.210173
  H       0.246973     -1.349211      0.463286
  H      -0.810691      3.183287      0.040032
  H      -3.121466      3.589813     -0.564602
  H      -5.152274      2.903075     -1.300573
  H      -3.601705     -0.591363     -1.511024
  H      -1.302154     -1.004116     -0.875591
  H       1.200366      2.825373     -0.061774
  H       3.515122      3.613743      0.456180
  H       5.796209      3.045271      1.234112
36
Coordinates from ORCA-job geom_m1 E -933.912729441111
  C       6.759318      0.583430      1.896140
  C       5.362820      0.928010      1.456184
  N       4.457916     -0.031605      1.449312
  C       3.183871      0.262947      1.052794
  C       2.207143     -0.762761      1.036273
  C       0.922109     -0.503366      0.641700
  C       0.506968      0.800461      0.240597
  C      -0.894078      1.053494     -0.175369
  C      -1.464077      2.335071     -0.092798
  C      -2.772831      2.566197     -0.465019
  C      -3.598070      1.519488     -0.922668
  C      -4.967667      1.853958     -1.212247
  C      -6.074829      1.074206     -1.425554
  C      -6.093491     -0.347792     -1.386105
  N      -6.109477     -1.502832     -1.352781
  C      -7.331872      1.697367     -1.672643
  N      -8.353341      2.203737     -1.866447
  C      -3.023240      0.236575     -1.038167
  C      -1.708906      0.017068     -0.677826
  C       1.455337      1.810273      0.255002
  C       2.789478      1.571786      0.649465
  C       3.788397      2.580424      0.664497
  C       5.054966      2.262894      1.061740
  H       6.825322     -0.471706      2.157173
  H       7.050796      1.180902      2.765160
  H       7.480663      0.797099      1.101843
  H       2.495850     -1.762207      1.348469
  H       0.204894     -1.316409      0.664332
  H      -0.884784      3.169777      0.284608
  H      -3.177067      3.571684     -0.387066
  H      -5.166055      2.926072     -1.237116
  H      -3.596339     -0.584181     -1.450658
  H      -1.301365     -0.977426     -0.816555
  H       1.201458      2.815222     -0.066370
  H       3.536395      3.593629      0.360517
  H       5.835142      3.018126      1.080631
36
Coordinates from ORCA-job geom_m1 E -933.913450428915
  C       6.776907      0.590700      1.809074
  C       5.372125      0.928510      1.397624
  N       4.457176     -0.021130      1.459483
  C       3.175803      0.270614      1.087638
  C       2.191323     -0.744414      1.147089
  C       0.896320     -0.490050      0.776943
  C       0.486870      0.797921      0.327153
  C      -0.916599      1.047717     -0.066941
  C      -1.500234      2.317509      0.069910
  C      -2.807093      2.549030     -0.314964
  C      -3.614192      1.515764     -0.835797
  C      -4.967207      1.865828     -1.187072
  C      -6.033287      1.083850     -1.539358
  C      -6.039124     -0.339339     -1.618766
  N      -6.057574     -1.494107     -1.685376
  C      -7.284135      1.708721     -1.831094
  N      -8.299121      2.213006     -2.061129
  C      -3.026703      0.243464     -0.982487
  C      -1.715318      0.023721     -0.609985
  C       1.441830      1.797935      0.269782
  C       2.783226      1.563616      0.638683
  C       3.790671      2.561073      0.581254
  C       5.065605      2.248241      0.955698
  H       6.844118     -0.452037      2.112663
  H       7.101076      1.221560      2.640815
  H       7.475561      0.764782      0.986758
  H       2.482867     -1.726753      1.498179
  H       0.169399     -1.287258      0.860238
  H      -0.937853      3.134601      0.501941
  H      -3.224909      3.541851     -0.198019
  H      -5.183325      2.927597     -1.146745
  H      -3.584871     -0.572294     -1.416422
  H      -1.296139     -0.959373     -0.776459
  H       1.188401      2.786999     -0.092927
  H       3.537570      3.559611      0.242216
  H       5.852194      2.992147      0.921446
36
Coordinates from ORCA-job geom_m1 E -933.913666712908
  C       6.781951      0.590831      1.769089
  C       5.374004      0.927225      1.368284
  N       4.452628     -0.012942      1.473797
  C       3.168416      0.277940      1.111781
  C       2.177926     -0.726854      1.218215
  C       0.879419     -0.474162      0.856979
  C       0.476577      0.802160      0.372793
  C      -0.927168      1.049411     -0.015860
  C      -1.521196      2.310399      0.152267
  C      -2.828917      2.538447     -0.233578
  C      -3.621099      1.512724     -0.791280
  C      -4.971408      1.860502     -1.159560
  C      -6.010846      1.086833     -1.593651
  C      -5.991637     -0.327949     -1.767602
  N      -6.000366     -1.475216     -1.914438
  C      -7.260704      1.711816     -1.894192
  N      -8.274644      2.214474     -2.131898
  C      -3.023687      0.248170     -0.959567
  C      -1.713541      0.029614     -0.580472
  C       1.435947      1.793866      0.269947
  C       2.780546      1.559451      0.627535
  C       3.794096      2.545903      0.523962
  C       5.072512      2.234549      0.889924
  H       6.846474     -0.442463      2.103634
  H       7.123566      1.244346      2.575736
  H       7.469302      0.734323      0.931692
  H       2.468601     -1.698330      1.596581
  H       0.144654     -1.259817      0.971153
  H      -0.965364      3.118326      0.608267
  H      -3.258757      3.521912     -0.090825
  H      -5.206566      2.913469     -1.065995
  H      -3.572688     -0.566582     -1.404885
  H      -1.285399     -0.947792     -0.756026
  H       1.181173      2.771712     -0.119867
  H       3.543066      3.534256      0.157453
  H       5.864483      2.969063      0.821656
36
Coordinates from ORCA-job geom_m1 E -933.913762201585
  C       6.784569      0.598303      1.752660
  C       5.374778      0.930730      1.353401
  N       4.451196     -0.003589      1.488290
  C       3.165207      0.283143      1.128522
  C       2.172331     -0.715607      1.266626
  C       0.872213     -0.467002      0.907952
  C       0.472785      0.799044      0.396630
  C      -0.932491      1.043640      0.010986
  C      -1.530265      2.300576      0.193525
  C      -2.839172      2.526338     -0.189110
  C      -3.623492      1.504861     -0.764279
  C      -4.974826      1.849905     -1.133521
  C      -6.000923      1.094257     -1.624887
  C      -5.965748     -0.307190     -1.881417
  N      -5.971620     -1.443003     -2.098605
  C      -7.249976      1.725753     -1.914618
  N      -8.263568      2.232638     -2.144445
  C      -3.022700      0.243161     -0.943242
  C      -1.712597      0.024455     -0.562295
  C       1.432741      1.786295      0.262724
  C       2.779384      1.554623      0.616188
  C       3.795203      2.534397      0.482030
  C       5.075466      2.227089      0.846391
  H       6.847908     -0.427195      2.110872
  H       7.133738      1.269314      2.541667
  H       7.466540      0.719680      0.907246
  H       2.463389     -1.678358      1.666737
  H       0.132101     -1.245054      1.041555
  H      -0.972674      3.104212      0.655480
  H      -3.275627      3.505110     -0.032994
  H      -5.222489      2.895239     -0.991331
  H      -3.568165     -0.571877     -1.392919
  H      -1.279368     -0.950907     -0.738800
  H       1.172819      2.755629     -0.144969
  H       3.544684      3.514569      0.093585
  H       5.870004      2.956437      0.755415
36
Coordinates from ORCA-job geom_m1 E -933.913790988814
  C       6.782758      0.600985      1.765530
  C       5.374416      0.932196      1.358639
  N       4.450041     -0.000644      1.495982
  C       3.165088      0.284420      1.130183
  C       2.171203     -0.713311      1.271238
  C       0.872466     -0.465952      0.907845
  C       0.475509      0.797832      0.388900
  C      -0.930448      1.042828      0.001510
  C      -1.526096      2.301006      0.181977
  C      -2.836553      2.526172     -0.194572
  C      -3.622690      1.503392     -0.764059
  C      -4.977849      1.844998     -1.120249
  C      -6.004283      1.095260     -1.620683
  C      -5.962406     -0.299871     -1.907289
  N      -5.966888     -1.430393     -2.149771
  C      -7.257904      1.725706     -1.889535
  N      -8.275587      2.231522     -2.103049
  C      -3.023784      0.240581     -0.943501
  C      -1.712377      0.021672     -0.566850
  C       1.436015      1.784037      0.250760
  C       2.781921      1.553327      0.608832
  C       3.799024      2.531519      0.471860
  C       5.077781      2.225569      0.842420
  H       6.843729     -0.422556      2.130148
  H       7.129051      1.276495      2.552233
  H       7.468172      0.716659      0.921855
  H       2.460852     -1.674279      1.678201
  H       0.129902     -1.242160      1.042795
  H      -0.964159      3.104721      0.639583
  H      -3.273218      3.505344     -0.037532
  H      -5.229658      2.887616     -0.957723
  H      -3.572270     -0.575767     -1.388869
  H      -1.279469     -0.954990     -0.739631
  H       1.175078      2.751391     -0.162050
  H       3.550526      3.510016      0.076340
  H       5.873459      2.954273      0.749583
36
Coordinates from ORCA-job geom_m1 E -933.913800950339
  C       6.782304      0.603129      1.771143
  C       5.374584      0.933344      1.360866
  N       4.449959      0.001185      1.499398
  C       3.165364      0.285170      1.130935
  C       2.171424     -0.712526      1.273314
  C       0.873206     -0.466228      0.908160
  C       0.476612      0.796596      0.386213
  C      -0.930096      1.041228     -0.001198
  C      -1.523547      2.301004      0.174684
  C      -2.834781      2.526005     -0.198770
  C      -3.623199      1.501595     -0.761969
  C      -4.979475      1.843045     -1.112245
  C      -6.005227      1.096984     -1.620688
  C      -5.959193     -0.293523     -1.928253
  N      -5.962655     -1.420166     -2.188236
  C      -7.261671      1.726442     -1.876578
  N      -8.281915      2.231261     -2.080163
  C      -3.026410      0.237102     -0.937938
  C      -1.714399      0.018203     -0.563685
  C       1.437205      1.782395      0.245945
  C       2.782923      1.552703      0.605597
  C       3.800624      2.530297      0.466907
  C       5.078649      2.225278      0.840112
  H       6.842324     -0.419440      2.138742
  H       7.127149      1.280780      2.556721
  H       7.469299      0.716259      0.928345
  H       2.461010     -1.672645      1.682996
  H       0.129904     -1.241814      1.044037
  H      -0.958620      3.105563      0.627517
  H      -3.270231      3.506467     -0.045078
  H      -5.233501      2.883498     -0.937042
  H      -3.577437     -0.580241     -1.378881
  H      -1.282155     -0.959432     -0.733489
  H       1.175738      2.748365     -0.170233
  H       3.552941      3.507867      0.067882
  H       5.874649      2.953863      0.745981
36
Coordinates from ORCA-job geom_m1 E -933.913803038707
  C       6.782176      0.603855      1.773570
  C       5.374852      0.933625      1.361756
  N       4.450066      0.001702      1.500115
  C       3.165700      0.285428      1.130549
  C       2.171833     -0.712379      1.272839
  C       0.873751     -0.466359      0.907311
  C       0.477049      0.796331      0.384734
  C      -0.929964      1.040695     -0.002272
  C      -1.521701      2.301936      0.168738
  C      -2.833527      2.526678     -0.202758
  C      -3.624177      1.500598     -0.759955
  C      -4.980791      1.842439     -1.107576
  C      -6.005356      1.097900     -1.621331
  C      -5.955743     -0.289501     -1.942227
  N      -5.957341     -1.413607     -2.213200
  C      -7.263870      1.725889     -1.869643
  N      -8.285916      2.229355     -2.067607
  C      -3.029076      0.234577     -0.931258
  C      -1.716721      0.015972     -0.558609
  C       1.437880      1.781855      0.244142
  C       2.783436      1.552578      0.604327
  C       3.801419      2.530047      0.465539
  C       5.079082      2.225275      0.839737
  H       6.841771     -0.418493      2.141832
  H       7.126100      1.281968      2.559136
  H       7.470059      0.716493      0.931459
  H       2.461511     -1.672329      1.682879
  H       0.130447     -1.241825      1.043552
  H      -0.955094      3.107654      0.617340
  H      -3.267685      3.508250     -0.052785
  H      -5.236387      2.881260     -0.925381
  H      -3.582569     -0.584058     -1.366620
  H      -1.285706     -0.962757     -0.724970
  H       1.176649      2.747320     -0.173344
  H       3.554134      3.507350      0.065570
  H       5.875067      2.953893      0.745461
36
Coordinates from ORCA-job geom_m1 E -933.913809370609
  C       6.782378      0.603941      1.773256
  C       5.375134      0.933541      1.361389
  N       4.450276      0.001675      1.499731
  C       3.165964      0.285459      1.130174
  C       2.172124     -0.712283      1.272607
  C       0.873924     -0.466223      0.907472
  C       0.476915      0.796448      0.384812
  C      -0.930131      1.040629     -0.001475
  C      -1.520787      2.302965      0.165520
  C      -2.833050      2.527339     -0.204752
  C      -3.625372      1.499991     -0.757507
  C      -4.981969      1.842205     -1.104548
  C      -6.004802      1.098464     -1.623046
  C      -5.951636     -0.286503     -1.953820
  N      -5.950605     -1.408685     -2.232830
  C      -7.264658      1.725158     -1.867691
  N      -8.287777      2.227435     -2.063188
  C      -3.031432      0.232818     -0.924403
  C      -1.718900      0.014597     -0.552631
  C       1.438067      1.781688      0.244037
  C       2.783568      1.552496      0.603999
  C       3.801606      2.529956      0.465112
  C       5.079256      2.225198      0.839238
  H       6.841974     -0.418428      2.141398
  H       7.126100      1.281975      2.558929
  H       7.470367      0.716759      0.931310
  H       2.461892     -1.672169      1.682459
  H       0.130951     -1.241710      1.044410
  H      -0.953428      3.109917      0.610691
  H      -3.266252      3.509638     -0.057654
  H      -5.239029      2.879669     -0.917996
  H      -3.586897     -0.587165     -1.354390
  H      -1.289273     -0.965185     -0.715693
  H       1.177367      2.747051     -0.173794
  H       3.554381      3.507158      0.065134
  H       5.875111      2.953795      0.744787
36
Coordinates from ORCA-job geom_m1 E -933.913808844646
  C       6.782673      0.603682      1.771517
  C       5.375249      0.933334      1.360452
  N       4.450459      0.001363      1.498957
  C       3.166029      0.285300      1.130111
  C       2.172167     -0.712330      1.272774
  C       0.873790     -0.466095      0.908233
  C       0.476513      0.796623      0.385872
  C      -0.930407      1.040802     -0.000031
  C      -1.520968      2.303381      0.165871
  C      -2.833263      2.527592     -0.204422
  C      -3.625894      1.500008     -0.756406
  C      -4.982288      1.842297     -1.104351
  C      -6.004192      1.098537     -1.624397
  C      -5.949724     -0.285939     -1.956944
  N      -5.947194     -1.407790     -2.237303
  C      -7.264137      1.724911     -1.869749
  N      -8.287232      2.226913     -2.066058
  C      -3.032174      0.232560     -0.921756
  C      -1.719683      0.014478     -0.549815
  C       1.437786      1.781783      0.245056
  C       2.783368      1.552454      0.604463
  C       3.801267      2.529996      0.465452
  C       5.079126      2.225148      0.838917
  H       6.842569     -0.418839      2.139151
  H       7.126692      1.281382      2.557326
  H       7.470262      0.717001      0.929332
  H       2.461958     -1.672282      1.682274
  H       0.131154     -1.241744      1.045596
  H      -0.953814      3.110897      0.610139
  H      -3.266250      3.510020     -0.057974
  H      -5.239843      2.879464     -0.917499
  H      -3.588030     -0.587961     -1.350051
  H      -1.290703     -0.965724     -0.711718
  H       1.177395      2.747360     -0.172334
  H       3.553831      3.507273      0.065979
  H       5.874863      2.953759      0.744387
